start = 1;

limit = 6;

n = 100;

m=[|-1,-1,-1,10,-1,-1,-1,-1,-1,-1,-1,14,2,-1,-1,-1,-1,-1,-1,-1,-1,-1,15,12,-1,10,-1,13,17,-1,10,-1,-1,-1,-1,-1,-1,14,-1,11,-1,12,-1,-1,-1,-1,-1,10,-1,20,-1,-1,16,10,10,1,9,-1,-1,-1,5,4,-1,-1,9,-1,-1,-1,2,-1,-1,-1,-1,10,7,-1,-1,19,10,13,-1,-1,7,14,-1,-1,-1,-1,14,1,0,-1,18,3,11,-1,-1,6,11,13,
|6,-1,16,-1,13,-1,11,-1,17,16,-1,-1,-1,-1,-1,5,10,4,5,13,-1,12,-1,12,-1,2,5,-1,-1,4,14,-1,12,-1,-1,3,4,-1,-1,-1,-1,-1,-1,0,-1,-1,-1,-1,14,0,19,-1,-1,-1,2,0,13,1,19,18,-1,8,19,9,-1,-1,-1,-1,7,16,-1,8,-1,13,-1,-1,-1,2,2,-1,-1,-1,8,18,-1,-1,8,5,-1,-1,-1,-1,16,12,0,18,-1,-1,6,20,
|18,-1,-1,-1,6,12,7,-1,-1,7,9,18,12,19,10,-1,18,17,-1,-1,14,-1,8,-1,-1,-1,-1,8,0,-1,18,3,8,-1,14,-1,-1,12,-1,-1,-1,19,5,-1,-1,3,-1,10,-1,-1,14,19,-1,-1,-1,0,10,0,-1,-1,16,-1,13,13,19,19,13,19,-1,3,-1,-1,20,-1,-1,11,-1,12,-1,-1,-1,-1,-1,-1,18,10,-1,-1,20,2,-1,-1,-1,-1,9,20,10,-1,19,-1,
|-1,-1,1,-1,-1,-1,3,-1,-1,-1,3,-1,-1,6,-1,-1,-1,-1,-1,3,1,-1,20,0,-1,16,-1,-1,-1,3,-1,5,16,16,-1,8,-1,13,0,10,16,14,-1,16,-1,16,4,-1,-1,9,-1,14,11,-1,13,-1,-1,13,18,-1,5,8,-1,-1,19,-1,18,-1,15,-1,6,3,2,11,13,-1,-1,15,-1,-1,-1,-1,-1,13,2,13,19,-1,-1,7,11,0,6,10,0,14,-1,-1,-1,1,
|0,20,-1,-1,-1,5,-1,8,-1,11,-1,15,-1,0,11,-1,6,0,3,9,11,-1,-1,14,-1,5,-1,-1,-1,-1,-1,-1,13,-1,11,-1,8,-1,-1,19,-1,-1,19,-1,16,19,-1,5,-1,-1,-1,2,7,5,13,14,6,10,-1,1,15,-1,-1,-1,-1,-1,-1,-1,-1,0,-1,-1,-1,-1,-1,1,8,3,8,6,-1,-1,-1,15,17,-1,3,14,5,-1,12,9,-1,-1,6,14,-1,-1,-1,6,
|-1,-1,-1,6,16,-1,10,15,-1,17,1,2,6,17,-1,-1,5,17,-1,-1,-1,17,-1,2,-1,4,15,-1,3,-1,-1,17,1,-1,17,-1,-1,-1,-1,20,13,3,-1,11,-1,1,-1,-1,20,7,10,-1,-1,10,7,7,13,-1,15,-1,2,4,11,1,18,-1,1,2,0,-1,8,19,4,18,18,0,-1,16,-1,-1,4,3,-1,8,-1,11,-1,-1,16,-1,7,7,-1,10,4,-1,-1,11,-1,10,
|12,18,9,1,-1,12,-1,-1,-1,-1,-1,-1,-1,18,-1,12,-1,17,18,-1,2,3,-1,-1,17,-1,17,-1,2,11,-1,0,9,-1,2,-1,19,-1,4,-1,-1,13,-1,-1,-1,3,-1,16,-1,10,19,10,0,18,17,8,-1,17,18,7,19,-1,19,19,14,-1,13,15,9,-1,18,0,5,-1,-1,-1,8,10,7,-1,17,6,9,8,15,18,-1,0,6,18,17,3,-1,-1,0,12,-1,0,19,11,
|-1,6,6,-1,-1,11,-1,-1,-1,-1,0,19,-1,10,16,3,-1,0,-1,16,1,-1,-1,8,-1,1,16,-1,-1,19,-1,-1,-1,-1,-1,9,-1,-1,20,-1,20,-1,-1,4,11,-1,-1,-1,-1,19,13,14,19,-1,-1,3,-1,6,15,-1,-1,-1,6,17,-1,-1,3,-1,15,16,-1,4,-1,9,1,-1,13,9,20,15,19,7,12,14,13,0,8,-1,-1,-1,-1,-1,-1,17,-1,-1,-1,-1,4,-1,
|1,-1,-1,-1,-1,19,20,-1,-1,-1,8,-1,-1,-1,8,-1,-1,-1,11,16,-1,-1,-1,2,4,19,13,10,8,4,16,-1,-1,1,-1,-1,-1,9,-1,9,5,19,-1,5,-1,-1,-1,15,-1,-1,10,17,-1,17,14,-1,-1,12,7,20,18,-1,19,-1,-1,-1,1,14,7,17,1,-1,7,-1,-1,-1,16,3,-1,4,8,6,3,-1,-1,-1,-1,-1,13,-1,-1,4,-1,8,-1,-1,-1,2,-1,8,
|-1,-1,-1,-1,10,-1,1,16,-1,-1,7,19,18,10,-1,-1,-1,14,-1,-1,17,20,8,-1,10,13,11,-1,4,3,18,14,-1,11,6,-1,-1,7,18,-1,3,3,8,-1,-1,2,-1,13,-1,4,18,-1,-1,-1,17,3,-1,-1,-1,18,13,-1,17,-1,-1,11,-1,20,-1,-1,0,13,15,-1,-1,-1,-1,2,-1,-1,0,-1,-1,14,20,16,10,0,-1,-1,13,19,3,17,1,-1,0,11,15,-1,
|18,12,-1,-1,2,-1,3,2,12,20,-1,11,7,13,-1,15,-1,1,-1,7,-1,9,-1,-1,-1,8,4,12,-1,-1,-1,-1,-1,19,9,10,17,19,19,-1,-1,16,-1,-1,-1,5,-1,18,-1,-1,19,-1,12,-1,-1,0,7,-1,8,19,-1,8,-1,9,6,-1,7,-1,-1,-1,12,15,-1,-1,17,-1,-1,-1,4,8,-1,-1,-1,0,5,8,-1,18,-1,-1,-1,9,7,19,-1,-1,12,12,-1,4,
|-1,15,0,14,-1,1,-1,14,-1,2,-1,-1,12,-1,7,18,15,17,-1,8,-1,3,17,-1,-1,-1,-1,6,10,1,-1,-1,-1,-1,4,-1,-1,-1,15,5,0,-1,19,-1,20,-1,-1,15,8,20,0,12,20,-1,15,9,-1,-1,-1,-1,-1,16,7,-1,4,-1,-1,19,16,-1,-1,20,7,-1,13,-1,-1,12,-1,-1,4,-1,-1,-1,4,-1,-1,-1,-1,-1,14,-1,17,-1,8,-1,12,-1,-1,-1,
|16,5,10,-1,-1,-1,12,-1,17,-1,10,14,-1,0,20,19,4,20,-1,16,18,-1,20,-1,-1,16,-1,-1,-1,-1,-1,-1,20,19,10,-1,3,9,-1,-1,3,8,9,-1,2,-1,13,10,-1,-1,-1,-1,13,-1,-1,-1,-1,16,1,-1,20,20,20,-1,20,15,19,20,-1,19,-1,-1,-1,16,-1,2,-1,19,3,11,-1,15,-1,3,3,15,-1,-1,-1,-1,-1,-1,12,3,1,-1,-1,6,17,7,
|-1,-1,0,2,13,-1,14,-1,-1,-1,7,-1,-1,-1,0,5,7,10,-1,19,11,-1,-1,16,13,-1,0,4,-1,10,-1,-1,-1,17,-1,-1,17,4,2,-1,-1,14,13,-1,-1,-1,1,-1,-1,-1,-1,13,-1,-1,4,-1,-1,12,-1,14,-1,6,14,7,17,-1,6,6,13,7,-1,-1,7,13,5,-1,20,2,9,-1,7,-1,-1,-1,0,-1,-1,20,15,-1,0,-1,-1,5,10,8,6,-1,14,-1,
|2,-1,-1,-1,17,-1,10,-1,-1,16,0,18,-1,-1,-1,15,12,18,9,-1,-1,5,-1,-1,-1,-1,4,3,-1,4,20,-1,-1,12,-1,-1,1,-1,-1,-1,17,8,11,-1,1,-1,-1,-1,-1,4,-1,10,20,-1,16,14,5,6,20,-1,-1,1,-1,-1,-1,10,6,-1,1,19,14,-1,-1,-1,17,19,-1,1,19,-1,-1,16,12,-1,1,0,-1,6,17,10,12,-1,3,-1,1,-1,-1,-1,-1,4,
|-1,20,9,-1,3,6,15,10,-1,16,-1,11,-1,5,-1,-1,-1,-1,10,15,-1,-1,-1,-1,2,-1,-1,7,4,-1,-1,5,-1,-1,-1,6,12,7,16,1,-1,16,20,-1,-1,-1,-1,-1,7,6,6,-1,-1,-1,11,-1,-1,-1,-1,20,11,-1,17,-1,-1,12,17,2,17,11,17,-1,4,-1,3,8,1,-1,-1,14,6,-1,9,20,-1,14,-1,18,-1,-1,19,-1,20,-1,1,-1,-1,-1,1,-1,
|3,-1,-1,-1,2,12,-1,13,17,-1,-1,4,-1,4,18,-1,-1,-1,19,18,8,-1,-1,10,-1,-1,2,-1,7,3,15,-1,17,3,-1,10,6,17,-1,6,-1,14,-1,20,-1,3,-1,-1,12,19,-1,17,-1,-1,-1,13,-1,5,12,7,-1,11,12,-1,-1,1,-1,-1,-1,-1,-1,-1,-1,-1,18,12,-1,-1,15,1,4,-1,-1,-1,-1,14,2,-1,-1,-1,14,-1,-1,-1,-1,-1,-1,-1,4,-1,
|0,-1,6,9,-1,-1,-1,-1,17,-1,2,18,13,9,11,5,-1,-1,0,17,13,-1,2,-1,-1,4,1,15,-1,1,-1,-1,-1,-1,-1,-1,-1,-1,13,-1,10,6,10,-1,19,12,11,5,20,-1,-1,12,12,8,17,-1,-1,4,16,-1,12,-1,16,5,3,-1,3,8,5,-1,3,0,11,-1,15,-1,18,19,8,-1,16,-1,19,-1,10,-1,-1,19,-1,2,-1,0,-1,3,-1,17,19,-1,-1,16,
|16,-1,8,-1,-1,-1,17,3,-1,-1,9,-1,-1,-1,-1,5,7,-1,-1,-1,-1,19,19,14,-1,-1,20,-1,-1,17,-1,11,18,16,-1,-1,16,-1,-1,-1,9,-1,-1,-1,7,-1,19,7,-1,13,9,-1,5,1,-1,7,-1,11,-1,6,-1,-1,-1,-1,10,7,-1,-1,-1,12,17,18,-1,-1,0,-1,0,-1,19,14,-1,-1,1,16,-1,14,14,12,-1,14,4,-1,11,-1,18,-1,-1,7,-1,-1,
|-1,17,-1,9,9,-1,-1,7,11,16,-1,-1,-1,-1,-1,10,-1,-1,-1,-1,-1,1,-1,-1,19,15,3,-1,-1,-1,-1,-1,4,-1,-1,-1,8,-1,-1,10,10,6,-1,6,13,13,-1,-1,-1,18,14,-1,5,11,-1,-1,-1,11,-1,-1,9,-1,-1,4,5,-1,-1,-1,17,-1,-1,-1,10,10,-1,-1,-1,17,6,-1,-1,19,15,-1,18,-1,20,9,5,14,19,17,17,-1,-1,-1,10,6,17,0,
|0,-1,-1,11,3,15,-1,-1,-1,-1,11,-1,-1,-1,-1,-1,14,-1,-1,0,-1,-1,16,10,-1,-1,2,-1,-1,6,-1,-1,5,-1,-1,3,14,11,15,-1,-1,-1,-1,-1,20,-1,-1,-1,20,16,-1,-1,-1,-1,-1,10,-1,9,-1,-1,-1,20,-1,0,9,11,-1,8,-1,6,19,-1,-1,19,-1,19,-1,-1,-1,-1,0,-1,2,-1,0,3,19,-1,-1,0,-1,0,-1,7,-1,-1,17,1,19,-1,
|-1,-1,-1,5,-1,-1,10,16,-1,2,5,-1,7,-1,18,-1,2,-1,4,4,20,-1,-1,8,8,16,18,-1,-1,11,-1,4,-1,12,-1,-1,-1,-1,-1,-1,-1,-1,-1,-1,8,2,-1,18,-1,0,6,10,16,16,-1,5,14,-1,-1,-1,-1,4,-1,1,12,6,19,16,12,14,-1,-1,-1,-1,12,12,6,-1,-1,1,4,-1,-1,-1,9,19,10,14,-1,-1,14,-1,2,-1,-1,9,6,8,-1,7,
|-1,-1,16,7,14,15,-1,-1,-1,-1,-1,-1,15,-1,14,-1,-1,-1,1,8,-1,8,-1,9,-1,-1,-1,-1,-1,16,13,12,13,-1,-1,15,18,18,-1,-1,18,-1,11,-1,11,-1,-1,1,14,-1,-1,-1,3,-1,3,-1,13,11,17,9,-1,-1,-1,3,-1,2,-1,1,16,-1,18,-1,-1,2,5,19,-1,12,-1,12,-1,19,14,0,4,-1,-1,-1,-1,3,19,-1,5,-1,10,7,-1,15,-1,-1,
|-1,-1,-1,12,6,9,-1,-1,2,10,4,-1,8,0,-1,18,-1,9,5,-1,15,4,-1,-1,-1,13,-1,4,14,-1,19,-1,19,11,9,-1,10,18,9,10,1,-1,13,-1,-1,-1,-1,11,12,-1,-1,2,-1,18,4,-1,-1,5,-1,3,-1,7,-1,9,19,-1,5,-1,1,1,14,-1,12,18,-1,15,-1,-1,-1,6,6,-1,-1,-1,-1,14,9,10,3,-1,-1,-1,-1,-1,-1,0,17,-1,-1,17,
|-1,0,-1,-1,-1,6,-1,7,17,0,-1,2,9,12,0,16,1,13,-1,6,-1,9,13,-1,-1,-1,-1,19,-1,14,15,-1,12,-1,15,-1,-1,20,-1,4,-1,11,16,2,-1,-1,12,8,-1,1,9,-1,-1,4,-1,0,12,13,-1,-1,8,7,8,8,15,-1,-1,12,20,-1,0,-1,15,-1,19,-1,19,-1,-1,-1,20,15,-1,-1,-1,10,-1,9,16,1,-1,-1,7,1,20,-1,-1,-1,17,-1,
|19,-1,11,-1,-1,10,-1,10,6,-1,-1,-1,-1,-1,20,-1,1,19,13,7,9,5,9,-1,-1,-1,-1,16,-1,16,6,-1,7,-1,3,-1,-1,-1,14,9,-1,-1,1,-1,19,4,3,-1,-1,-1,-1,-1,12,-1,11,-1,7,-1,-1,8,-1,-1,-1,-1,-1,16,2,19,2,13,-1,-1,-1,16,-1,-1,-1,-1,19,-1,-1,0,-1,-1,-1,-1,-1,-1,13,-1,18,-1,-1,-1,-1,7,-1,10,12,17,
|14,-1,8,8,-1,-1,3,7,13,19,9,-1,12,11,4,14,-1,-1,13,10,-1,-1,-1,-1,-1,8,-1,16,11,4,-1,-1,-1,6,-1,7,5,10,9,13,3,11,-1,-1,15,-1,-1,-1,-1,-1,-1,2,4,-1,7,-1,10,7,-1,3,15,-1,-1,7,20,8,-1,3,7,7,9,-1,-1,-1,3,5,-1,-1,-1,20,-1,3,2,3,-1,14,-1,17,-1,-1,8,1,-1,-1,5,1,-1,-1,4,-1,
|19,-1,13,-1,6,5,-1,-1,2,18,-1,10,7,-1,-1,17,15,-1,-1,-1,3,-1,-1,15,-1,-1,-1,-1,-1,4,-1,19,-1,-1,15,-1,-1,-1,1,18,0,4,20,12,-1,14,14,7,12,-1,-1,-1,7,16,7,-1,-1,5,11,10,13,-1,-1,19,-1,-1,11,1,13,15,-1,20,-1,-1,0,-1,-1,2,18,-1,15,16,11,-1,0,-1,20,14,-1,2,-1,-1,13,-1,18,-1,-1,15,-1,-1,
|12,-1,-1,-1,-1,-1,8,0,19,-1,0,11,-1,14,10,-1,-1,5,15,8,5,-1,-1,-1,-1,8,2,18,-1,-1,15,18,12,4,14,14,2,15,10,-1,20,20,14,16,-1,15,20,4,-1,-1,-1,16,2,19,12,1,12,-1,11,15,-1,19,10,-1,8,-1,18,0,-1,-1,-1,6,-1,-1,18,-1,5,-1,-1,18,-1,17,-1,-1,-1,20,17,-1,5,-1,-1,-1,12,9,15,-1,7,-1,-1,12,
|20,18,6,-1,-1,-1,6,-1,-1,10,13,20,-1,-1,7,-1,11,15,8,-1,-1,-1,-1,3,18,-1,7,-1,-1,-1,-1,-1,-1,-1,3,14,-1,-1,-1,-1,19,7,7,-1,16,15,10,19,-1,-1,-1,-1,-1,11,-1,-1,3,-1,-1,-1,-1,-1,4,14,-1,10,16,-1,20,15,13,12,-1,-1,-1,-1,17,-1,-1,-1,1,-1,-1,-1,14,12,4,15,-1,3,-1,-1,-1,-1,17,-1,19,19,13,3,
|-1,-1,-1,-1,8,13,19,12,-1,7,-1,12,-1,8,1,-1,6,6,16,19,-1,-1,-1,9,-1,15,3,5,5,-1,-1,7,-1,-1,11,13,-1,6,-1,14,8,8,20,0,-1,10,-1,-1,8,1,17,-1,20,-1,-1,-1,1,8,9,-1,14,-1,19,4,8,-1,-1,-1,3,-1,4,9,4,9,-1,-1,10,-1,15,-1,-1,15,10,8,-1,0,0,-1,-1,-1,-1,3,19,-1,4,4,-1,17,20,-1,
|17,17,-1,0,-1,14,-1,-1,-1,19,-1,-1,15,10,-1,14,-1,19,-1,-1,9,-1,19,-1,3,-1,-1,13,14,-1,15,-1,12,3,17,12,-1,-1,-1,11,-1,11,-1,-1,-1,9,8,-1,19,7,-1,-1,0,-1,1,11,-1,-1,-1,13,13,-1,6,4,2,-1,-1,15,15,20,-1,20,-1,19,-1,-1,-1,19,-1,-1,-1,0,-1,5,-1,-1,3,7,1,-1,-1,3,-1,12,12,15,18,3,-1,-1,
|6,3,-1,2,2,5,16,0,-1,-1,-1,-1,2,10,-1,3,4,7,10,4,6,17,16,-1,19,-1,18,-1,-1,-1,16,0,-1,-1,-1,-1,9,3,-1,20,-1,5,-1,6,-1,-1,4,-1,-1,17,-1,-1,18,-1,20,-1,-1,11,-1,11,7,-1,2,10,-1,-1,5,-1,-1,1,-1,8,9,-1,-1,13,-1,-1,18,-1,-1,-1,10,7,-1,-1,-1,13,1,12,-1,10,8,-1,5,-1,-1,16,-1,-1,
|-1,-1,0,-1,13,0,-1,-1,9,5,16,4,-1,-1,17,3,-1,15,19,-1,18,6,3,-1,-1,18,9,8,7,18,7,17,-1,-1,5,15,5,-1,-1,2,6,19,-1,-1,8,3,9,5,5,2,5,-1,-1,-1,-1,-1,-1,-1,12,7,-1,-1,-1,15,14,14,-1,10,-1,-1,14,-1,-1,-1,10,-1,7,10,-1,10,9,19,-1,-1,-1,-1,3,18,-1,17,11,-1,-1,16,18,6,-1,-1,5,-1,
|14,-1,-1,19,-1,13,15,6,15,-1,16,-1,14,-1,19,1,-1,-1,-1,-1,4,18,-1,13,-1,17,12,13,3,14,5,10,-1,-1,-1,-1,17,5,20,8,19,-1,7,-1,5,-1,19,-1,-1,19,9,-1,-1,-1,16,10,10,1,5,-1,-1,3,-1,3,-1,-1,-1,4,18,5,-1,-1,-1,-1,-1,10,-1,-1,6,1,16,19,-1,19,-1,11,-1,4,-1,-1,19,10,-1,17,9,-1,-1,17,10,16,
|5,-1,-1,-1,-1,-1,3,13,-1,4,12,-1,-1,-1,-1,-1,12,-1,16,16,-1,15,-1,19,-1,-1,-1,9,-1,7,7,13,-1,3,18,-1,-1,10,-1,-1,-1,14,-1,-1,-1,-1,-1,-1,1,7,-1,-1,4,-1,15,2,8,-1,0,-1,-1,7,8,-1,-1,14,7,-1,0,16,-1,-1,-1,8,-1,0,16,2,9,-1,2,-1,-1,14,0,-1,-1,11,20,-1,-1,0,15,9,10,0,9,10,-1,14,
|-1,-1,-1,3,2,-1,20,19,10,3,-1,14,-1,7,-1,9,0,-1,9,18,19,-1,5,6,18,13,-1,-1,2,-1,-1,11,12,-1,-1,19,-1,5,-1,10,-1,10,-1,7,-1,17,11,-1,15,-1,-1,11,20,-1,3,-1,8,8,-1,-1,15,-1,0,-1,-1,-1,5,14,-1,-1,14,-1,-1,7,9,-1,9,-1,-1,-1,-1,10,2,-1,-1,-1,4,-1,18,-1,-1,16,-1,-1,-1,5,17,-1,11,-1,
|17,13,19,6,-1,-1,4,-1,-1,-1,-1,11,17,11,6,0,3,-1,17,0,-1,14,-1,-1,2,17,16,9,15,5,-1,11,5,20,12,-1,-1,-1,3,4,18,-1,1,18,-1,-1,16,-1,17,18,-1,11,8,-1,-1,3,-1,-1,13,-1,16,9,-1,-1,11,6,14,20,0,11,-1,-1,-1,-1,7,-1,15,-1,5,-1,0,-1,-1,-1,5,-1,12,9,6,12,-1,16,-1,9,-1,6,-1,-1,17,6,
|-1,1,8,11,-1,18,7,9,7,3,11,7,18,-1,-1,-1,-1,9,1,-1,11,-1,2,10,-1,-1,19,-1,4,2,13,-1,3,-1,13,-1,11,-1,-1,10,11,-1,7,-1,7,-1,7,-1,1,-1,3,12,-1,19,17,-1,-1,13,-1,-1,1,-1,-1,0,-1,-1,-1,17,-1,-1,-1,-1,17,7,-1,16,9,-1,13,12,0,4,5,-1,-1,17,-1,-1,1,-1,-1,13,10,-1,-1,15,12,-1,-1,-1,
|11,11,-1,6,17,3,-1,-1,-1,5,1,-1,19,6,-1,4,8,-1,3,4,-1,-1,15,6,16,5,17,2,1,11,16,11,-1,-1,-1,-1,12,-1,13,-1,-1,-1,0,18,11,11,8,20,11,12,20,-1,-1,1,-1,1,-1,-1,-1,-1,10,17,15,-1,15,-1,-1,12,-1,-1,16,-1,1,-1,-1,0,-1,14,7,0,11,10,13,-1,8,19,17,20,-1,0,18,-1,5,-1,-1,-1,12,-1,-1,13,
|17,-1,-1,12,-1,11,-1,-1,-1,-1,16,2,16,-1,11,-1,15,-1,-1,14,-1,15,8,-1,-1,-1,15,20,2,-1,-1,4,-1,10,-1,-1,-1,3,17,-1,-1,0,20,-1,-1,-1,-1,12,0,-1,0,-1,17,14,-1,-1,2,6,0,-1,9,6,20,10,-1,-1,-1,-1,-1,-1,-1,-1,11,13,10,-1,-1,3,13,-1,-1,-1,-1,9,-1,9,6,0,6,-1,-1,-1,6,20,14,-1,-1,-1,-1,20,
|1,17,-1,1,19,13,-1,12,2,-1,-1,3,18,-1,2,-1,-1,-1,-1,-1,-1,10,20,6,19,-1,14,6,-1,6,-1,9,-1,-1,0,11,17,-1,11,-1,-1,-1,-1,-1,4,6,-1,2,14,11,-1,9,19,-1,-1,2,-1,5,18,13,-1,15,20,-1,8,8,12,-1,2,-1,7,17,-1,-1,9,12,1,15,5,-1,16,7,-1,12,9,-1,8,-1,-1,19,-1,7,10,-1,-1,-1,1,-1,-1,-1,
|-1,-1,-1,7,-1,-1,9,20,2,-1,5,5,-1,15,13,13,16,-1,0,-1,-1,6,-1,-1,-1,12,-1,-1,17,-1,-1,-1,18,1,-1,-1,-1,4,2,1,-1,14,-1,12,10,12,20,5,5,1,14,-1,4,10,-1,-1,-1,10,-1,-1,0,10,19,-1,10,15,4,17,-1,-1,0,16,-1,-1,8,-1,-1,-1,2,-1,17,-1,-1,-1,4,-1,-1,-1,17,-1,-1,2,-1,-1,-1,6,14,-1,3,2,
|17,4,11,16,-1,-1,20,14,-1,6,16,-1,6,-1,-1,1,13,6,3,11,-1,-1,4,13,-1,14,7,-1,11,3,17,-1,-1,-1,-1,-1,-1,-1,2,20,-1,4,14,-1,-1,-1,-1,13,15,18,1,2,5,-1,0,12,0,-1,-1,5,16,16,-1,8,0,5,5,1,10,-1,15,10,-1,-1,14,-1,5,-1,16,2,-1,-1,11,-1,-1,4,14,7,-1,9,18,7,0,5,-1,1,-1,-1,-1,17,
|5,-1,-1,-1,3,4,-1,-1,-1,8,-1,20,-1,-1,-1,6,20,13,15,-1,5,-1,-1,3,-1,2,4,7,-1,16,16,6,-1,13,-1,12,8,-1,-1,7,19,1,-1,-1,-1,6,19,-1,-1,5,7,6,-1,-1,10,15,6,16,-1,-1,10,14,18,20,-1,13,4,11,5,13,9,-1,1,-1,8,-1,18,-1,-1,16,-1,-1,-1,2,-1,-1,2,-1,-1,1,-1,10,11,8,-1,-1,5,-1,-1,-1,
|17,-1,12,-1,-1,0,2,0,9,3,11,-1,4,-1,-1,19,2,7,11,4,-1,-1,1,-1,5,3,-1,9,-1,12,-1,-1,-1,-1,-1,-1,-1,-1,-1,7,-1,15,-1,-1,-1,-1,-1,-1,1,-1,9,9,-1,7,5,13,1,-1,4,-1,20,-1,10,-1,15,-1,2,-1,-1,16,16,-1,12,1,3,-1,-1,-1,13,-1,9,14,-1,-1,2,-1,-1,-1,1,12,2,12,-1,-1,-1,-1,-1,4,-1,11,
|-1,-1,20,15,-1,7,15,3,-1,8,5,3,-1,-1,13,11,5,-1,-1,18,16,5,-1,-1,17,-1,-1,-1,19,18,-1,1,-1,-1,-1,14,-1,11,10,18,-1,16,-1,-1,-1,-1,-1,16,7,0,7,-1,-1,14,9,-1,-1,1,-1,-1,7,14,-1,10,9,14,-1,-1,-1,4,-1,-1,20,-1,-1,-1,0,-1,12,8,20,0,6,10,-1,9,1,4,-1,12,-1,-1,4,-1,20,16,17,14,-1,11,
|18,9,-1,10,1,9,-1,18,-1,-1,6,17,20,-1,-1,17,-1,-1,-1,-1,17,-1,10,7,-1,18,-1,9,1,16,20,5,11,18,-1,-1,-1,-1,5,15,-1,2,10,-1,3,-1,-1,-1,-1,-1,8,13,17,6,19,-1,17,10,-1,-1,-1,-1,20,-1,7,-1,12,13,-1,1,3,7,-1,8,19,-1,-1,18,12,10,18,-1,5,5,-1,18,-1,-1,11,-1,-1,-1,8,-1,-1,-1,-1,18,-1,-1,
|-1,18,-1,-1,-1,9,-1,11,-1,-1,9,14,-1,11,12,-1,1,-1,-1,18,8,14,6,-1,-1,12,17,-1,-1,-1,-1,16,6,2,-1,6,-1,4,8,9,1,-1,15,-1,-1,11,-1,-1,-1,-1,15,-1,-1,-1,-1,-1,-1,-1,-1,-1,-1,17,9,15,0,4,-1,-1,1,0,16,-1,19,-1,-1,-1,8,-1,-1,20,4,-1,-1,9,-1,12,13,-1,-1,-1,4,19,3,-1,15,10,-1,18,-1,5,
|-1,17,5,19,-1,10,-1,-1,-1,-1,-1,8,-1,-1,-1,-1,7,11,-1,-1,-1,-1,-1,15,-1,-1,-1,20,0,-1,-1,10,19,19,19,10,20,-1,-1,-1,-1,-1,2,11,-1,-1,-1,-1,-1,-1,-1,-1,-1,-1,-1,-1,-1,3,0,-1,18,2,14,11,13,-1,7,-1,6,-1,-1,-1,12,-1,20,-1,1,10,-1,19,14,-1,14,8,19,1,-1,-1,16,11,16,-1,11,3,-1,19,-1,19,11,-1,
|-1,6,12,-1,20,-1,-1,17,1,-1,-1,-1,-1,-1,-1,-1,1,11,-1,-1,-1,-1,20,9,0,8,19,-1,16,3,-1,-1,-1,-1,-1,-1,-1,-1,8,-1,4,-1,14,3,-1,10,-1,10,19,-1,-1,7,-1,-1,9,-1,-1,6,16,7,-1,-1,14,17,17,12,-1,4,18,19,12,10,20,-1,-1,-1,1,20,15,-1,-1,8,5,-1,15,12,-1,-1,6,-1,10,-1,0,14,-1,-1,0,-1,6,20,
|4,14,-1,13,-1,7,16,7,-1,2,10,8,-1,-1,10,-1,-1,10,-1,12,-1,-1,7,19,6,-1,16,7,14,7,-1,11,-1,-1,-1,7,-1,-1,-1,20,-1,3,-1,-1,-1,8,-1,5,2,1,-1,-1,-1,6,-1,-1,-1,-1,8,15,-1,-1,10,12,0,-1,15,-1,13,-1,-1,-1,16,-1,10,-1,18,-1,3,9,-1,-1,18,16,11,19,4,-1,13,-1,10,-1,6,-1,19,10,7,-1,-1,-1,
|16,16,16,20,13,-1,-1,3,19,17,13,18,-1,0,20,-1,-1,4,4,-1,-1,0,-1,8,-1,-1,13,-1,17,-1,4,4,-1,-1,-1,-1,11,15,6,8,-1,-1,-1,-1,5,20,-1,14,-1,-1,-1,0,-1,20,17,10,12,-1,11,19,14,8,-1,-1,6,-1,5,7,7,-1,2,-1,1,0,-1,-1,-1,-1,13,-1,-1,-1,16,2,15,-1,18,-1,5,3,6,-1,-1,-1,-1,-1,-1,14,-1,-1,
|-1,18,15,1,18,-1,0,-1,8,19,-1,14,-1,17,-1,6,-1,-1,12,5,16,-1,-1,4,20,18,19,-1,-1,-1,-1,-1,-1,5,-1,-1,10,19,-1,11,-1,3,17,-1,-1,14,-1,-1,8,-1,1,12,-1,-1,14,3,5,10,1,12,-1,-1,2,2,-1,6,-1,-1,17,20,6,-1,10,10,-1,-1,-1,9,-1,20,-1,16,-1,12,10,5,-1,-1,-1,6,12,-1,4,-1,13,20,7,-1,14,-1,
|18,-1,-1,-1,7,7,10,-1,-1,-1,17,-1,2,-1,-1,11,-1,-1,-1,-1,0,-1,18,-1,-1,3,13,6,-1,6,3,-1,7,13,-1,13,-1,-1,0,5,13,-1,-1,10,9,-1,-1,13,16,13,-1,-1,-1,7,-1,18,3,2,16,5,-1,16,-1,-1,-1,2,11,-1,18,12,-1,12,20,-1,-1,11,11,6,-1,19,2,-1,-1,17,16,-1,-1,-1,6,-1,-1,17,-1,18,2,4,-1,5,16,-1,
|5,13,-1,0,17,-1,-1,2,-1,6,-1,-1,-1,18,9,-1,12,-1,-1,5,-1,17,-1,-1,9,-1,3,-1,13,-1,16,18,-1,3,-1,8,6,-1,10,0,-1,18,-1,-1,-1,-1,-1,5,-1,-1,10,6,-1,19,-1,-1,-1,-1,10,-1,-1,-1,1,-1,14,0,-1,15,10,-1,3,8,-1,-1,13,-1,0,-1,-1,14,9,-1,-1,-1,-1,-1,20,5,-1,8,-1,14,-1,14,14,5,-1,15,16,11,
|-1,-1,12,19,-1,-1,-1,14,-1,-1,3,-1,16,-1,10,-1,-1,-1,17,-1,-1,-1,0,6,-1,-1,7,-1,5,11,0,-1,14,-1,11,-1,20,-1,4,-1,-1,3,15,4,2,15,8,3,-1,-1,-1,-1,9,-1,-1,18,-1,1,13,6,19,0,-1,14,3,-1,13,15,-1,-1,1,-1,-1,7,20,10,-1,18,4,10,10,-1,1,-1,16,8,-1,-1,1,-1,-1,-1,17,-1,-1,-1,-1,-1,-1,-1,
|-1,-1,11,0,0,10,-1,5,-1,-1,5,1,-1,7,-1,-1,0,-1,15,2,-1,12,1,-1,-1,-1,-1,-1,-1,-1,-1,-1,-1,11,2,-1,-1,-1,7,14,-1,-1,-1,-1,3,12,-1,7,-1,-1,2,5,11,3,-1,-1,4,-1,-1,-1,-1,-1,-1,-1,-1,-1,-1,16,17,-1,-1,-1,-1,0,-1,16,10,-1,11,14,-1,-1,18,7,4,-1,20,-1,-1,4,-1,-1,17,0,-1,3,15,-1,20,-1,
|-1,8,-1,-1,7,10,-1,-1,18,-1,1,10,14,8,15,-1,17,-1,18,0,10,-1,5,-1,-1,10,10,-1,17,-1,-1,7,-1,-1,-1,8,15,-1,-1,10,3,-1,-1,-1,3,-1,-1,14,13,7,3,-1,5,-1,-1,11,12,-1,-1,12,-1,-1,-1,12,20,20,14,-1,-1,1,9,3,-1,7,-1,-1,0,10,-1,18,13,2,-1,12,-1,8,14,19,14,-1,10,-1,-1,-1,9,-1,7,7,-1,5,
|20,20,-1,-1,3,-1,10,-1,17,-1,-1,-1,7,11,-1,19,-1,5,7,2,12,4,-1,6,18,1,-1,10,7,-1,14,-1,17,-1,20,16,-1,-1,-1,18,-1,-1,-1,6,-1,-1,18,-1,8,1,-1,-1,-1,6,18,-1,10,-1,-1,-1,10,15,15,19,-1,-1,6,-1,2,-1,19,-1,-1,1,-1,-1,5,-1,16,-1,19,-1,-1,-1,15,-1,-1,5,-1,3,11,2,-1,18,12,-1,-1,-1,20,19,
|-1,-1,4,13,-1,0,-1,-1,-1,13,5,17,-1,16,17,-1,1,-1,1,-1,5,-1,-1,-1,-1,9,3,5,-1,-1,-1,6,-1,7,-1,-1,-1,10,-1,-1,3,-1,20,-1,4,15,-1,15,19,-1,19,-1,-1,20,-1,14,-1,-1,15,-1,-1,-1,-1,-1,-1,2,20,3,-1,7,10,-1,6,-1,3,7,-1,-1,0,-1,20,-1,14,-1,10,5,-1,-1,3,20,-1,10,-1,19,1,6,-1,20,-1,-1,
|-1,8,17,-1,-1,15,2,1,-1,8,14,-1,1,-1,-1,2,-1,-1,14,19,18,-1,-1,-1,-1,15,-1,1,-1,9,-1,10,-1,3,4,13,-1,16,17,12,-1,-1,-1,5,11,-1,3,8,-1,15,19,4,-1,9,-1,4,4,-1,14,2,15,-1,7,-1,0,-1,-1,10,15,-1,-1,12,-1,-1,5,17,-1,14,-1,5,-1,-1,13,16,20,14,-1,5,-1,16,-1,13,7,19,-1,11,2,15,5,13,
|-1,-1,-1,-1,10,11,10,2,-1,-1,14,-1,8,12,-1,1,-1,17,12,0,-1,-1,-1,15,17,-1,19,20,16,1,-1,-1,-1,-1,17,-1,-1,0,11,-1,-1,1,-1,-1,19,8,5,6,2,18,12,16,17,3,3,-1,15,18,-1,-1,16,10,-1,-1,-1,8,3,16,-1,19,-1,13,3,0,9,9,11,18,-1,1,-1,-1,-1,-1,20,-1,9,7,15,8,3,17,-1,15,-1,-1,19,9,10,19,
|7,8,16,12,-1,0,-1,-1,-1,16,-1,15,9,-1,-1,-1,-1,-1,20,13,18,-1,2,-1,10,20,6,15,-1,14,-1,-1,6,-1,12,-1,12,-1,0,-1,6,2,18,16,-1,-1,-1,19,18,20,-1,13,6,19,-1,16,10,10,20,15,3,6,9,-1,-1,-1,8,-1,-1,1,-1,2,-1,-1,16,12,20,-1,6,-1,-1,5,-1,4,-1,-1,11,6,-1,17,-1,-1,-1,19,-1,-1,-1,6,-1,-1,
|-1,-1,0,-1,-1,-1,12,-1,10,-1,19,-1,-1,5,3,-1,-1,8,8,-1,8,-1,-1,1,-1,9,-1,-1,16,-1,9,-1,-1,9,-1,-1,-1,13,5,8,17,-1,1,-1,20,-1,7,-1,-1,-1,-1,-1,-1,13,20,-1,14,10,18,-1,-1,-1,17,-1,-1,-1,-1,-1,-1,-1,9,-1,2,6,9,-1,17,13,-1,-1,0,-1,-1,11,-1,7,-1,1,-1,8,-1,8,14,4,12,17,16,9,-1,-1,
|8,-1,-1,1,10,3,-1,-1,-1,-1,20,-1,-1,18,-1,20,11,0,15,14,1,14,4,-1,-1,-1,11,-1,-1,9,-1,-1,3,7,-1,5,16,-1,12,-1,-1,-1,18,9,-1,20,7,6,14,-1,-1,-1,8,13,15,18,16,-1,2,11,0,4,9,15,19,-1,-1,18,-1,-1,11,4,20,-1,-1,-1,-1,-1,-1,2,19,-1,-1,6,-1,16,-1,3,3,3,-1,-1,18,-1,-1,-1,2,0,-1,6,
|-1,-1,5,20,-1,-1,12,11,-1,2,-1,17,-1,-1,-1,1,-1,12,2,-1,10,-1,-1,17,-1,-1,-1,20,10,15,-1,-1,-1,5,-1,-1,-1,-1,-1,-1,-1,-1,-1,-1,0,20,-1,-1,-1,15,12,17,15,17,10,1,4,-1,10,9,14,-1,-1,19,-1,-1,-1,-1,3,-1,-1,-1,5,6,-1,-1,12,10,16,10,16,-1,-1,-1,0,16,-1,20,17,-1,-1,4,-1,-1,7,-1,-1,13,18,-1,
|20,-1,10,-1,-1,9,-1,0,16,18,-1,18,-1,-1,-1,3,-1,0,-1,-1,-1,-1,1,1,-1,-1,19,2,-1,-1,9,-1,3,9,-1,19,-1,11,-1,6,1,19,-1,-1,11,-1,8,-1,9,20,13,12,2,0,-1,-1,-1,-1,-1,-1,-1,-1,3,-1,0,-1,12,-1,-1,3,-1,8,-1,-1,-1,15,6,-1,18,15,-1,-1,4,3,15,-1,-1,20,-1,-1,-1,8,19,0,-1,17,9,14,11,-1,
|7,-1,-1,-1,11,-1,5,3,-1,-1,11,2,11,5,-1,14,2,-1,5,7,15,7,7,5,-1,-1,4,20,8,-1,8,-1,3,3,12,3,1,16,-1,-1,-1,1,12,4,20,-1,16,-1,-1,-1,19,20,-1,8,8,1,-1,6,13,10,7,-1,-1,-1,-1,15,1,11,-1,-1,2,6,-1,16,-1,3,14,-1,-1,12,16,-1,16,-1,-1,14,-1,17,1,19,-1,-1,-1,-1,-1,20,-1,-1,-1,6,
|16,2,-1,8,15,-1,14,-1,0,2,4,-1,-1,-1,6,12,17,-1,5,-1,20,-1,-1,-1,-1,5,19,1,15,-1,-1,5,-1,-1,0,-1,0,-1,19,-1,18,-1,1,19,-1,18,-1,14,2,17,14,1,11,-1,-1,-1,13,1,0,7,-1,17,4,-1,11,5,6,-1,-1,-1,11,-1,15,-1,6,7,-1,-1,-1,17,14,-1,-1,-1,8,20,11,17,-1,12,12,-1,4,-1,-1,14,13,-1,9,-1,
|19,18,-1,-1,4,15,18,-1,20,-1,11,1,-1,15,12,-1,-1,-1,17,-1,-1,18,14,-1,3,-1,7,9,2,16,-1,5,8,-1,4,-1,-1,17,-1,-1,2,6,10,-1,-1,14,-1,-1,16,15,-1,-1,-1,19,-1,9,-1,-1,5,11,-1,3,-1,15,-1,-1,-1,-1,-1,-1,-1,13,10,-1,3,-1,-1,-1,-1,-1,-1,-1,7,-1,12,8,-1,15,-1,-1,-1,-1,-1,-1,9,12,20,-1,-1,2,
|12,16,16,-1,-1,-1,5,-1,-1,-1,3,7,-1,-1,10,11,12,-1,3,-1,-1,19,20,14,-1,-1,-1,-1,-1,5,-1,6,-1,18,8,2,-1,-1,3,-1,-1,-1,16,-1,11,2,2,20,12,-1,-1,6,11,-1,-1,-1,12,-1,0,8,-1,8,-1,17,5,-1,12,8,15,-1,6,-1,-1,-1,-1,-1,14,4,-1,-1,1,19,-1,-1,-1,16,1,13,1,-1,16,-1,-1,-1,9,-1,-1,-1,1,11,
|15,5,-1,0,9,2,11,-1,20,-1,-1,-1,-1,10,20,-1,20,-1,8,14,6,11,6,-1,-1,1,0,8,17,8,2,13,18,10,-1,6,16,7,4,20,17,-1,10,16,-1,-1,20,-1,-1,-1,-1,7,-1,-1,0,-1,16,-1,12,-1,20,-1,16,7,11,7,-1,-1,6,1,-1,4,-1,-1,20,-1,-1,-1,0,2,-1,16,-1,-1,10,-1,4,20,10,-1,18,-1,14,13,-1,-1,-1,-1,-1,19,
|-1,2,11,14,6,-1,-1,-1,1,9,3,16,-1,-1,15,13,-1,-1,14,7,16,-1,-1,18,0,10,15,8,5,4,2,-1,-1,-1,-1,-1,13,-1,-1,-1,-1,-1,-1,-1,-1,5,11,-1,0,-1,-1,13,-1,-1,-1,0,16,12,-1,10,3,-1,-1,8,19,14,-1,9,-1,18,-1,4,-1,-1,10,-1,-1,-1,-1,-1,19,7,-1,10,6,8,-1,0,16,6,13,11,8,8,14,-1,-1,2,-1,17,
|1,-1,20,-1,2,-1,-1,-1,-1,18,-1,-1,0,-1,-1,19,17,-1,20,-1,-1,15,-1,-1,-1,-1,17,-1,19,-1,9,13,11,-1,-1,-1,-1,11,9,14,7,19,-1,18,-1,6,-1,8,-1,-1,11,4,18,13,-1,-1,-1,-1,-1,2,-1,-1,2,-1,10,-1,13,16,17,16,11,19,-1,5,-1,-1,-1,-1,17,-1,-1,-1,18,16,12,20,3,12,-1,4,-1,-1,12,-1,-1,-1,-1,-1,-1,-1,
|-1,6,15,-1,-1,-1,7,11,2,5,15,-1,7,1,-1,-1,-1,20,-1,-1,-1,14,-1,-1,2,4,-1,-1,18,-1,17,9,-1,-1,-1,0,4,-1,-1,1,-1,0,-1,13,-1,12,6,-1,-1,-1,-1,18,-1,-1,19,-1,20,-1,-1,-1,8,9,12,-1,-1,-1,-1,-1,-1,-1,-1,13,-1,13,1,-1,15,10,17,11,3,-1,-1,-1,5,-1,-1,5,2,-1,8,-1,16,2,12,-1,-1,3,-1,-1,
|6,0,-1,16,-1,-1,-1,-1,10,10,9,-1,-1,-1,1,-1,-1,9,20,1,10,14,-1,-1,-1,5,-1,-1,-1,13,17,-1,19,-1,4,-1,-1,-1,-1,-1,16,-1,0,-1,19,-1,-1,15,5,-1,13,-1,-1,11,-1,10,11,-1,15,-1,12,-1,4,12,-1,5,-1,4,16,-1,-1,7,20,14,19,20,-1,15,-1,14,-1,-1,20,6,-1,-1,-1,-1,-1,-1,-1,0,17,12,-1,-1,13,3,4,3,
|9,8,14,0,-1,-1,-1,-1,-1,-1,-1,1,13,4,2,-1,-1,-1,-1,16,2,2,18,-1,-1,20,3,-1,-1,18,-1,9,20,-1,-1,19,-1,-1,5,-1,15,-1,10,5,-1,12,13,13,9,18,-1,-1,3,-1,7,-1,-1,9,-1,-1,0,-1,-1,-1,-1,-1,0,-1,9,7,14,-1,20,2,-1,-1,11,-1,18,-1,-1,18,0,2,-1,-1,-1,19,9,11,-1,-1,-1,-1,-1,-1,4,15,4,-1,
|1,-1,2,9,9,-1,2,-1,11,-1,-1,-1,-1,-1,9,18,20,17,16,14,15,11,-1,14,-1,-1,3,1,20,-1,-1,10,-1,11,-1,19,-1,1,-1,6,9,-1,-1,-1,2,-1,-1,16,-1,-1,-1,-1,-1,-1,12,6,3,-1,-1,-1,-1,-1,7,18,-1,5,3,-1,18,5,-1,18,-1,4,1,2,-1,-1,-1,2,13,3,-1,9,6,19,-1,-1,15,6,18,14,18,-1,7,4,18,6,-1,20,
|4,15,13,12,4,9,-1,3,10,5,-1,9,-1,-1,-1,18,18,-1,4,-1,15,1,14,-1,16,14,3,-1,-1,-1,-1,10,2,5,8,-1,-1,-1,17,6,-1,20,-1,14,10,1,1,10,11,17,-1,6,2,-1,-1,-1,-1,-1,5,6,-1,20,13,-1,19,-1,-1,-1,-1,-1,-1,12,20,-1,-1,14,-1,7,-1,-1,17,-1,-1,8,-1,10,6,-1,-1,-1,9,-1,10,-1,-1,15,-1,11,-1,-1,
|15,19,13,11,14,8,8,10,5,13,19,12,-1,-1,12,19,5,-1,-1,-1,-1,-1,-1,16,-1,14,14,15,-1,3,-1,-1,-1,1,-1,11,-1,-1,7,-1,-1,15,11,-1,20,-1,10,-1,-1,-1,11,13,-1,-1,-1,-1,-1,-1,-1,-1,-1,-1,-1,20,-1,13,9,14,-1,-1,-1,-1,-1,-1,-1,12,9,0,-1,11,-1,-1,10,4,-1,10,11,9,19,-1,10,-1,-1,-1,16,8,-1,12,13,-1,
|-1,14,0,-1,6,0,2,18,20,-1,-1,16,-1,17,3,10,20,-1,-1,-1,-1,6,-1,7,16,4,-1,-1,-1,17,18,16,-1,11,-1,-1,-1,9,-1,-1,-1,-1,15,17,-1,-1,17,-1,-1,-1,10,19,8,-1,-1,-1,-1,-1,-1,13,18,-1,-1,-1,5,1,-1,-1,-1,-1,-1,3,-1,4,-1,-1,9,-1,20,16,9,-1,5,6,18,-1,8,-1,11,-1,8,7,13,-1,3,0,9,5,16,3,
|14,-1,14,-1,-1,-1,16,18,-1,-1,-1,-1,16,12,-1,17,1,-1,-1,2,-1,20,-1,1,15,10,-1,-1,7,2,-1,16,12,-1,-1,-1,-1,5,14,-1,-1,-1,-1,-1,5,13,-1,-1,13,7,8,11,17,-1,18,11,0,19,1,3,8,17,-1,19,-1,-1,-1,0,20,-1,-1,-1,-1,-1,16,6,-1,8,19,13,-1,-1,-1,16,14,10,17,-1,9,11,-1,10,-1,-1,-1,-1,16,17,19,-1,
|-1,-1,-1,-1,-1,8,-1,11,11,9,-1,-1,16,-1,-1,15,-1,-1,10,17,-1,-1,18,18,-1,-1,5,6,18,-1,-1,12,-1,-1,17,-1,-1,1,7,1,13,15,-1,-1,-1,14,18,11,7,1,-1,-1,18,-1,-1,-1,1,-1,8,10,-1,13,-1,15,14,16,10,-1,14,-1,1,-1,-1,4,14,19,19,5,-1,8,6,3,14,-1,10,3,-1,9,-1,-1,19,20,17,19,-1,7,15,-1,-1,4,
|-1,8,19,15,13,-1,20,-1,-1,9,-1,17,-1,17,20,-1,0,-1,-1,19,-1,9,9,1,9,-1,-1,3,14,0,4,-1,-1,-1,2,-1,-1,8,-1,4,-1,-1,-1,-1,-1,-1,-1,9,3,-1,-1,0,-1,4,3,-1,7,7,-1,8,-1,5,5,-1,-1,3,16,-1,-1,12,7,-1,17,-1,20,3,0,19,6,7,-1,4,-1,-1,-1,-1,14,-1,-1,-1,10,-1,18,9,-1,-1,-1,-1,-1,-1,
|16,-1,-1,-1,-1,-1,-1,3,7,13,-1,-1,-1,8,-1,-1,-1,20,-1,-1,7,-1,8,10,-1,-1,6,-1,-1,-1,-1,-1,1,18,15,13,-1,16,-1,-1,-1,17,-1,-1,-1,-1,15,15,-1,-1,9,-1,7,-1,-1,17,-1,-1,-1,15,12,20,-1,19,9,2,-1,6,11,15,9,14,-1,11,-1,8,-1,-1,17,-1,15,-1,-1,15,-1,-1,9,-1,16,2,19,-1,20,9,16,-1,4,12,8,-1,
|-1,20,0,4,17,3,11,19,2,-1,-1,10,13,-1,10,13,-1,19,19,4,7,20,15,1,-1,-1,-1,2,15,-1,-1,-1,4,-1,-1,-1,10,16,6,-1,15,9,-1,-1,-1,-1,1,-1,-1,9,-1,-1,20,-1,-1,-1,-1,12,5,-1,15,-1,-1,-1,20,-1,-1,19,19,6,-1,-1,-1,18,-1,19,-1,2,-1,18,-1,4,6,-1,4,-1,-1,1,-1,2,7,-1,8,-1,-1,13,-1,19,-1,19,
|0,6,12,18,-1,-1,0,2,15,3,-1,-1,5,-1,5,19,-1,11,15,-1,11,10,9,-1,14,17,17,-1,7,8,-1,-1,-1,0,3,13,19,0,18,19,-1,-1,-1,-1,-1,18,10,18,7,13,-1,-1,-1,-1,5,-1,-1,12,-1,-1,-1,-1,14,0,13,-1,20,-1,7,-1,-1,-1,-1,1,-1,19,16,4,-1,-1,-1,1,-1,-1,-1,-1,6,-1,7,-1,-1,-1,9,2,-1,-1,-1,19,8,-1,
|-1,11,-1,-1,6,-1,10,-1,-1,-1,5,-1,-1,10,-1,-1,13,20,19,3,-1,-1,-1,-1,9,20,19,14,-1,5,10,-1,-1,12,0,6,-1,-1,-1,15,-1,17,14,-1,10,-1,18,-1,-1,4,-1,1,-1,8,-1,5,0,-1,-1,-1,-1,9,-1,-1,-1,-1,-1,1,-1,7,-1,17,-1,14,17,-1,6,10,20,-1,-1,-1,-1,-1,4,-1,3,4,-1,-1,-1,-1,19,-1,-1,-1,-1,18,-1,-1,
|5,16,-1,-1,-1,-1,3,-1,7,20,-1,9,-1,11,-1,-1,10,-1,-1,8,-1,17,1,19,1,-1,-1,-1,8,7,9,16,5,8,-1,8,-1,-1,14,-1,3,-1,14,4,4,-1,-1,14,1,2,11,10,17,-1,-1,5,-1,-1,11,19,0,11,20,7,18,17,-1,7,-1,-1,-1,10,14,-1,-1,8,19,10,19,17,-1,-1,5,-1,-1,4,4,-1,8,-1,-1,15,12,17,-1,-1,-1,-1,15,13,
|3,-1,-1,-1,-1,10,-1,-1,8,8,5,-1,20,18,-1,-1,5,2,10,-1,19,-1,20,12,-1,-1,-1,-1,16,20,-1,17,-1,16,20,4,-1,-1,-1,-1,12,2,-1,-1,5,18,-1,12,-1,4,2,-1,-1,9,20,-1,13,0,6,-1,14,-1,8,-1,5,6,-1,-1,-1,-1,3,0,-1,18,17,0,-1,-1,17,18,10,3,-1,8,-1,11,-1,5,6,5,-1,5,-1,-1,-1,-1,-1,-1,-1,-1,
|15,6,-1,-1,-1,-1,-1,7,-1,12,-1,15,17,-1,-1,19,13,9,-1,3,-1,20,20,-1,-1,-1,5,-1,1,-1,4,4,6,9,-1,-1,1,20,10,-1,-1,20,-1,4,17,-1,-1,15,1,12,-1,-1,14,10,-1,20,-1,18,9,11,4,10,-1,-1,20,-1,-1,14,13,-1,-1,7,-1,-1,-1,-1,2,18,6,9,20,-1,9,-1,-1,20,14,-1,-1,-1,-1,-1,10,8,7,-1,13,11,-1,-1,
|1,-1,-1,-1,14,20,3,-1,17,-1,-1,-1,-1,-1,20,-1,4,14,14,-1,13,17,-1,-1,15,-1,-1,-1,15,-1,-1,10,-1,-1,-1,0,7,4,17,-1,-1,-1,18,-1,16,-1,2,-1,10,-1,-1,11,-1,5,16,-1,-1,-1,20,-1,-1,5,5,7,-1,3,-1,-1,9,2,-1,9,-1,-1,5,-1,3,0,11,-1,-1,-1,-1,17,16,9,-1,2,-1,-1,-1,-1,-1,12,10,5,18,-1,16,5,
|-1,-1,10,-1,0,17,1,-1,-1,-1,14,16,-1,-1,8,-1,-1,-1,11,6,7,-1,17,13,-1,5,10,8,-1,11,13,-1,-1,-1,2,1,4,-1,-1,13,2,-1,13,-1,-1,-1,-1,-1,0,19,18,9,12,8,0,0,-1,10,-1,3,19,3,-1,18,18,19,7,0,-1,-1,15,-1,-1,9,-1,7,-1,14,-1,8,-1,3,-1,5,18,-1,11,-1,16,-1,-1,-1,-1,-1,-1,-1,11,-1,-1,9,
|-1,-1,15,19,15,-1,-1,14,-1,-1,4,6,-1,-1,-1,-1,-1,15,-1,1,-1,20,-1,17,-1,-1,5,4,18,-1,-1,15,14,-1,-1,2,-1,-1,-1,-1,-1,18,-1,-1,-1,19,8,14,10,15,-1,15,-1,13,-1,-1,-1,-1,1,-1,11,-1,3,3,-1,1,20,20,14,-1,-1,-1,1,4,-1,12,-1,-1,-1,15,13,10,9,-1,-1,19,-1,2,-1,-1,-1,-1,4,-1,-1,12,8,-1,-1,-1,
|5,1,5,5,-1,17,18,10,13,2,16,-1,16,-1,-1,-1,5,9,-1,2,-1,-1,-1,11,-1,15,7,-1,-1,-1,-1,5,-1,-1,9,-1,1,18,-1,11,5,4,0,-1,-1,20,-1,4,12,7,-1,2,-1,19,19,-1,18,-1,7,-1,17,-1,14,-1,1,6,-1,12,-1,-1,-1,7,-1,14,2,15,-1,1,-1,15,-1,-1,-1,13,-1,-1,-1,9,16,0,-1,-1,5,-1,2,-1,-1,-1,-1,-1,
|16,5,-1,14,-1,-1,-1,-1,-1,-1,-1,10,17,-1,10,5,-1,20,15,-1,0,20,7,-1,-1,-1,1,11,17,16,-1,-1,-1,9,9,12,-1,1,-1,10,-1,9,-1,2,-1,1,7,14,-1,-1,12,4,12,-1,0,12,5,10,2,-1,-1,-1,5,19,-1,-1,-1,12,-1,0,-1,15,3,4,18,12,12,-1,20,-1,4,11,2,-1,5,-1,20,-1,20,-1,-1,10,15,-1,17,-1,-1,-1,-1,6,
|-1,-1,-1,-1,2,-1,8,7,12,1,16,6,19,4,15,-1,-1,8,1,-1,12,-1,-1,11,-1,11,18,-1,-1,-1,-1,-1,-1,-1,-1,14,6,-1,4,2,17,-1,-1,-1,-1,10,-1,-1,0,-1,-1,-1,-1,15,-1,-1,-1,-1,-1,0,-1,7,-1,13,-1,-1,-1,-1,-1,8,11,5,9,-1,-1,16,-1,5,-1,-1,-1,-1,-1,2,-1,13,17,-1,7,-1,-1,6,12,15,-1,-1,12,-1,1,-1,
|-1,3,-1,-1,20,8,1,-1,-1,12,18,20,18,4,18,16,7,-1,4,-1,3,-1,4,9,-1,5,12,6,4,-1,5,-1,12,19,12,1,-1,14,-1,-1,16,-1,-1,2,-1,-1,20,-1,2,20,10,8,2,-1,-1,7,-1,3,11,-1,-1,-1,14,-1,4,-1,-1,8,-1,-1,0,7,15,17,2,12,16,11,-1,9,2,-1,14,-1,-1,-1,-1,19,-1,1,-1,-1,-1,-1,11,-1,18,-1,-1,-1,
|4,6,-1,2,-1,3,9,-1,3,13,-1,-1,16,-1,13,2,-1,10,1,-1,-1,-1,-1,5,3,1,0,3,-1,19,-1,0,13,5,0,-1,-1,10,3,-1,-1,-1,-1,15,-1,12,2,18,-1,-1,10,-1,-1,0,-1,13,16,14,20,14,4,17,-1,13,10,12,20,20,-1,-1,-1,3,18,4,-1,-1,1,6,-1,-1,-1,-1,-1,15,14,-1,-1,-1,18,-1,-1,15,6,-1,15,-1,2,10,-1,-1,
|]
;